KPOINTS created by Atomic Simulation Environment
0
Monkhorst-Pack
4 4 4
0.0 0.0 0.0
