Fe 
 1.0000000000000000
    -1.4350000000000001    1.4350000000000001    1.4350000000000001
     1.4350000000000001   -1.4350000000000001    1.4350000000000001
     1.4350000000000001    1.4350000000000001   -1.4350000000000001
   1
Cartesian
  0.0000000000000000  0.0000000000000000  0.0000000000000000
