 C  O 
 1.0000000000000000
     6.0000000000000000    0.0000000000000000    0.0000000000000000
     0.0000000000000000    6.0000000000000000    0.0000000000000000
     0.0000000000000000    0.0000000000000000    6.0000000000000000
   1   1
Cartesian
  0.0279089887800978  0.0000000000000000  0.0000000000000000
  1.1720910112199190  0.0000000000000000  0.0000000000000000
