INCAR created by Atomic Simulation Environment
 SIGMA = 0.100000
 NBANDS = 44
 LORBIT = 11
 LDAUPRINT = 2
 LDAUTYPE = 3
 LMAXMIX = 4
 LDAUL = 2 -1 
 LDAUJ = 0.0000 0.0000 
 LDAUU = 0.0000 0.0000 
 LDAU = .TRUE.
