Fe Fe 
 1.0000000000000000
     4.9709858177226787    0.0000000000000000    0.0000000000000000
    -1.6569952725742263    4.6866903745251474    0.0000000000000000
    -1.6569952725742259   -2.3433451872625728    4.0587929240107830
   1   7
Cartesian
  0.0000000000000000  0.0000000000000000  0.0000000000000000
  2.4854929088613393  0.0000000000000000  0.0000000000000000
 -0.8284976362871131  2.3433451872625737  0.0000000000000000
  1.6569952725742261  2.3433451872625737  0.0000000000000000
 -0.8284976362871129 -1.1716725936312864  2.0293964620053915
  1.6569952725742265 -1.1716725936312864  2.0293964620053915
 -1.6569952725742261  1.1716725936312873  2.0293964620053915
  0.8284976362871131  1.1716725936312873  2.0293964620053915
