Mn  O 
 1.0000000000000000
     8.0000000000000000    0.0000000000000000    0.0000000000000000
     0.0000000000000000    9.0000000000000000    0.0000000000000000
     0.0000000000000000    0.0000000000000000   10.0000000000000000
   1   1
Cartesian
  3.2000000000000002  4.5000000000000000  5.0000000000000000
  4.8000000000000007  4.5000000000000000  5.0000000000000000
