 C  O 
 1.0000000000000000
     6.0000000000000000    0.0000000000000000    0.0000000000000000
     0.0000000000000000    6.0000000000000000    0.0000000000000000
     0.0000000000000000    0.0000000000000000    6.0000000000000000
   1   1
Cartesian
  0.0312885733976298  0.0000000000000000  0.0000000000000000
  1.1687114266023877  0.0000000000000000  0.0000000000000000
