 O Pt                                   
   1.00000000000000     
     5.5437171645025325    0.0000000000000000    0.0000000000000000
     2.7718585822512662    4.8009998958550284    0.0000000000000000
     0.0000000000000000    0.0000000000000000   24.5264261104466676
   O    Pt
     1    12
Selective dynamics
Direct
  0.2498067936017410  0.2498067936017408  0.6514798757805066   T   T   T
  0.1666666666666643  0.1666666666666643  0.4077234879214870   F   F   F
  0.6666666666666643  0.1666666666666643  0.4077234879214870   F   F   F
  0.1666666666666643  0.6666666666666643  0.4077234879214870   F   F   F
  0.6666666666666643  0.6666666666666643  0.4077234879214870   F   F   F
  0.8333333333333357  0.3333333333333357  0.5000000000000000   F   F   F
  0.3333333333333357  0.3333333333333357  0.5000000000000000   F   F   F
  0.8333333333333357  0.8333333333333357  0.5000000000000000   F   F   F
  0.3333333333333357  0.8333333333333357  0.5000000000000000   F   F   F
  0.0000000000000000  0.0000000000000000  0.5922765120785130   F   F   F
  0.5000000000000000  0.0000000000000000  0.5922765120785130   F   F   F
  0.0000000000000000  0.5000000000000000  0.5922765120785130   F   F   F
  0.5000000000000000  0.5000000000000000  0.5922765120785130   F   F   F
 
  0.00000000E+00  0.00000000E+00  0.00000000E+00
  0.00000000E+00  0.00000000E+00  0.00000000E+00
  0.00000000E+00  0.00000000E+00  0.00000000E+00
  0.00000000E+00  0.00000000E+00  0.00000000E+00
  0.00000000E+00  0.00000000E+00  0.00000000E+00
  0.00000000E+00  0.00000000E+00  0.00000000E+00
  0.00000000E+00  0.00000000E+00  0.00000000E+00
  0.00000000E+00  0.00000000E+00  0.00000000E+00
  0.00000000E+00  0.00000000E+00  0.00000000E+00
  0.00000000E+00  0.00000000E+00  0.00000000E+00
  0.00000000E+00  0.00000000E+00  0.00000000E+00
  0.00000000E+00  0.00000000E+00  0.00000000E+00
  0.00000000E+00  0.00000000E+00  0.00000000E+00
