 O Pt 
 1.0000000000000000
     5.5437171645025325    0.0000000000000000    0.0000000000000000
     2.7718585822512662    4.8009998958550284    0.0000000000000000
     0.0000000000000000    0.0000000000000000   24.5264261104466676
   1  12
Selective dynamics
Cartesian
  2.0788939366884498  1.2002499739637571 15.9774261104467215   T   T   T
  1.3859292911256134  0.8001666493091600  9.9999999999999449   F   F   F
  4.1577878733768801  0.8001666493091600  9.9999999999999449   F   F   F
  2.7718585822512467  3.2006665972366743  9.9999999999999449   F   F   F
  5.5437171645025130  3.2006665972366743  9.9999999999999449   F   F   F
  5.5437171645025529  1.6003332986183543 12.2632130552233338   F   F   F
  2.7718585822512858  1.6003332986183543 12.2632130552233338   F   F   F
  6.9296464556281858  4.0008332465458682 12.2632130552233338   F   F   F
  4.1577878733769191  4.0008332465458682 12.2632130552233338   F   F   F
  0.0000000000000000  0.0000000000000000 14.5264261104467209   F   F   F
  2.7718585822512662  0.0000000000000000 14.5264261104467209   F   F   F
  1.3859292911256331  2.4004999479275142 14.5264261104467209   F   F   F
  4.1577878733768996  2.4004999479275142 14.5264261104467209   F   F   F
