 C  O 
 1.0000000000000000
     6.0000000000000000    0.0000000000000000    0.0000000000000000
     0.0000000000000000    6.0000000000000000    0.0000000000000000
     0.0000000000000000    0.0000000000000000    6.0000000000000000
   1   1
Cartesian
  5.0000000000000000  5.0000000000000000  5.0000000000000000
  6.0000000000000000  5.0000000000000000  5.0000000000000000
